# Objective value = -1.1899513863625936e+07
Slot(LIF201G,1) 1
Slot(STA203G,1) 1
Slot(MAS201F,1) 1
Slot(EDL612M,1) 1
Slot(JAR202G,1) 1
Slot(LEF616M,1) 1

Slot(LAN203G,2) 1
Slot(STA405G,2) 1
Slot(STA209G,2) 1
Slot(LIF401G,2) 1

Slot(TOL203F,3) 1
Slot(IDN209F,3) 1
Slot(JAR253F,3) 1
Slot(UMV213F,3) 1
Slot(RAF401G,3) 1
Slot(RAF616M,3) 1
Slot(STA403M,3) 1
Slot(EFN410G,3) 1
Slot(HBV601G,3) 1
Slot(FER409G,3) 1
Slot(FER210F,3) 1
Slot(JAR617G,3) 1
Slot(UAU206M,3) 1
Slot(RAF601G,3) 1
Slot(EDL204G,3) 1
Slot(RAF201G,3) 1
Slot(EDL402M,3) 1
Slot(BYG202M,3) 1
Slot(BYG203M,3) 1
Slot(JAR619G,3) 1
Slot(LIF614M,3) 1
Slot(VEL215F,3) 1
Slot(VEL405G,3) 1


Slot(LEF406G,4) 1
Slot(RAF403G,4) 1
Slot(UAU214M,4) 1
Slot(EDL403G,4) 1
Slot(LIF633G,4) 1
Slot(LIF227F,4) 1
Slot(IDN603G,4) 1
Slot(VEL218F,4) 1
Slot(BYG601G,4) 1
Slot(HBV203F,4) 1
Slot(LAN401G,4) 1
Slot(FER609G,4) 1
Slot(FER211F,4) 1
Slot(TOL203M,4) 1
Slot(LEF617M,5) 1
Slot(JAR211G,5) 1
Slot(LIF635G,5) 1
Slot(TOV602M,5) 1
Slot(HBV201G,5) 1
Slot(UMV203G,5) 1
Slot(UMV203M,5) 1
Slot(LIF215G,5) 1
Slot(EFN208G,5) 1
Slot(BYG201M,5) 1
Slot(HBV401G,6) 1
Slot(JAR418G,6) 1
Slot(LAN604M,6) 1
Slot(EDL402G,6) 1
Slot(LIF410G,6) 1
Slot(LIF243F,6) 1
Slot(LIF615M,6) 1
Slot(JAR611G,6) 1
Slot(STA411G,6) 1
Slot(EDL205G,6) 1
Slot(UMV201G,6) 1
Slot(EFN612M,6) 1
Slot(STA202G,7) 1
Slot(LIF412M,7) 1
Slot(TOL202M,7) 1
Slot(LAN219G,7) 1
Slot(JAR415G,7) 1
Slot(FER208G,7) 1
Slot(STA418M,7) 1
Slot(RAF404G,7) 1
Slot(EFN408G,7) 1
Slot(VEL201G,7) 1
Slot(FER603M,8) 1
Slot(BYG603G,8) 1
Slot(REI202M,8) 1
Slot(HBV402G,8) 1
Slot(BYG201G,9) 1
Slot(LIF214G,9) 1
Slot(EFN202G,9) 1
Slot(TOV201G,9) 1
Slot(TOL401G,10) 1
Slot(JAR417G,10) 1
Slot(BYG401G,10) 1
Slot(RAF402G,10) 1
Slot(EDL401G,10) 1
Slot(LIF403G,10) 1
Slot(VEL401G,10) 1
Slot(VEL202G,11) 1
Slot(STA207G,11) 1
Slot(JED201G,11) 1
Slot(LAN205G,11) 1
Slot(EFN404G,11) 1
Slot(LAN410G,11) 1
Slot(LAN209F,11) 1
Slot(IDN401G,12) 1
Slot(VEL601G,13) 1
Slot(REI201G,13) 1
Slot(EFN207G,13) 1
Slot(IDN402G,13) 1
Slot(VEL402G,14) 1
Slot(EDL203G,14) 1
Slot(EFN205G,15) 1
Slot(EFN214G,15) 1
Slot(EFN406G,15) 1
Slot(JAR212G,15) 1
Slot(STA205G,16) 1
Slot(IDN403G,17) 1
Slot(TOL403G,17) 1
Slot(STA401G,18) 1
Slot(EDL201G,20) 1
Slot(EDL206G,20) 1

Slot(TOL203G,21) 1
